c 163_4_checker.cnf
c
c field = 163
c formula set type = 4_checker
c
p cnf 5 46
316 
318 
320 
322 
-314 
317 
319 
321 
323 
-315 
316 
318 
320 
322 
-326 
317 
319 
321 
323 
-327 
318 
320 
322 
326 
-316 
319 
321 
323 
327 
-317 
318 
320 
322 
326 
-328 
319 
321 
323 
327 
-329 
320 
322 
326 
328 
-318 
321 
323 
327 
329 
-319 
204 
234 
264 
294 
-174 
205 
235 
265 
295 
-175 
204 
234 
264 
294 
-354 
205 
235 
265 
295 
-355 
234 
264 
294 
354 
-204 
235 
265 
295 
355 
-205 
234 
264 
294 
354 
-384 
235 
265 
295 
355 
-385 
264 
294 
354 
384 
-234 
265 
295 
355 
385 
-235 
264 
294 
354 
384 
-414 
265 
295 
355 
385 
-415 
294 
354 
384 
414 
-264 
295 
355 
385 
415 
-265 
294 
354 
384 
414 
-444 
295 
355 
385 
415 
-445 
354 
384 
414 
444 
-294 
355 
385 
415 
445 
-295 
196 
228 
260 
292 
-164 
197 
229 
261 
293 
-165 
196 
228 
260 
292 
-356 
197 
229 
261 
293 
-357 
228 
260 
292 
356 
-196 
229 
261 
293 
357 
-197 
228 
260 
292 
356 
-388 
229 
261 
293 
357 
-389 
260 
292 
356 
388 
-228 
261 
293 
357 
389 
-229 
268 
296 
352 
380 
-408 
269 
297 
353 
381 
-409 
296 
352 
380 
408 
-268 
297 
353 
381 
409 
-269 
296 
352 
380 
408 
-436 
297 
353 
381 
409 
-437 
352 
380 
408 
436 
-296 
353 
381 
409 
437 
-297 
